NAME: tsp25_29
COMMENT: 25-tsp problem (Padberg/Rinaldi)
TYPE: TSP
DIMENSION: 25
EDGE_WEIGHT_TYPE : EUC_2D
NODE_COORD_SECTION
1 32 2
2 1 2
3 0 24
4 20 7
5 29 39
6 15 3
7 38 39
8 37 25
9 15 17
10 3 30
11 7 14
12 0 16
13 31 36
14 24 2
15 26 1
16 25 21
17 6 28
18 39 19
19 2 33
20 21 9
21 10 11
22 11 9
23 40 5
24 29 1
25 12 10
